1 -1 -2 0
1 -1 -3 0
1 1 -4 0
1 -5 -6 0
1 5 -2 0
1 -5 1 0
1 5 7 0
1 -8 -9 0
1 -8 3 0
1 -8 -10 0
1 9 -11 0
1 9 -3 0
1 -9 -12 0
1 -3 13 0
1 3 -9 0
1 -3 14 0
1 -3 8 0
1 -3 -1 0
1 3 7 0
1 7 -5 0
1 7 -3 0
1 2 -15 0
1 2 -5 0
1 2 -16 0
1 2 -17 0
1 -2 -8 0
1 2 10 0
1 10 15 0
1 -10 -5 0
1 10 2 0
1 -10 14 0
1 10 -17 0
1 10 1 0
1 10 18 0
1 -19 20 0
1 -20 21 0
1 -20 -22 0
1 20 12 0
1 20 -19 0
1 -23 -21 0
1 -23 -24 0
1 -23 25 0
1 23 -26 0
1 -23 -27 0
1 28 23 0
1 -28 25 0
1 -12 -20 0
1 -12 -9 0
1 -12 -29 0
1 -12 -30 0
1 12 23 0
1 12 -19 0
1 12 31 0
1 21 9 0
1 21 -32 0
1 21 -12 0
1 -21 8 0
1 -24 -28 0
1 24 -33 0
1 -24 -34 0
1 24 14 0
1 24 19 0
1 -24 31 0
1 35 36 0
1 35 -13 0
1 35 28 0
1 35 9 0
1 -35 -29 0
1 -35 24 0
1 35 -33 0
1 -35 -23 0
1 35 -19 0
1 35 -8 0
1 32 37 0
1 -32 -38 0
1 -32 12 0
1 -37 39 0
1 -37 32 0
1 37 -12 0
1 37 27 0
1 40 38 0
1 40 -39 0
1 -40 -25 0
1 41 -21 0
1 -41 38 0
1 -41 39 0
1 41 -40 0
1 41 -12 0
1 27 -37 0
1 -27 42 0
1 27 40 0
1 39 -28 0
1 -39 43 0
1 39 40 0
1 -39 32 0
1 -39 44 0
1 25 42 0
1 -25 -29 0
1 25 32 0
1 -25 -23 0
1 -25 45 0
1 -25 46 0
1 25 -31 0
1 -38 -37 0
1 -38 32 0
1 38 -23 0
1 38 -25 0
1 -38 44 0
1 -4 -47 0
1 -4 -48 0
1 -4 -49 0
1 -4 -50 0
1 -6 -4 0
1 51 -52 0
1 51 -53 0
1 -51 54 0
1 -11 47 0
1 -11 -9 0
1 -11 55 0
1 -47 56 0
1 -47 57 0
1 -47 11 0
1 47 6 0
1 -47 -58 0
1 47 -26 0
1 47 17 0
1 -49 56 0
1 -49 -11 0
1 49 6 0
1 -49 -58 0
1 49 17 0
1 -52 59 0
1 52 60 0
1 -52 61 0
1 -52 -48 0
1 52 62 0
1 52 -63 0
1 52 -4 0
1 -48 52 0
1 48 -61 0
1 -48 6 0
1 48 -58 0
1 -48 -62 0
1 48 -51 0
1 17 22 0
1 -17 55 0
1 17 -19 0
1 17 10 0
1 22 20 0
1 -22 -64 0
1 -22 -2 0
1 22 49 0
1 22 -17 0
1 26 -62 0
1 -26 65 0
1 -26 -10 0
1 -15 -55 0
1 -15 47 0
1 -15 -66 0
1 -15 65 0
1 64 -55 0
1 -64 -15 0
1 -64 -67 0
1 64 -68 0
1 -64 33 0
1 -64 14 0
1 -64 -26 0
1 -55 -69 0
1 55 70 0
1 55 -15 0
1 55 -11 0
1 55 -68 0
1 -55 26 0
1 55 51 0
1 -71 -69 0
1 -71 -22 0
1 -71 -68 0
1 -71 -72 0
1 71 -53 0
1 71 -58 0
1 -53 69 0
1 -53 -56 0
1 53 -72 0
1 53 -17 0
1 53 -51 0
1 14 35 0
1 -14 73 0
1 -14 -24 0
1 -14 65 0
1 13 -35 0
1 13 56 0
1 -13 -73 0
1 -13 -66 0
1 13 2 0
1 13 -3 0
1 13 -24 0
1 -33 -74 0
1 -33 70 0
1 -33 -75 0
1 33 -72 0
1 -33 -55 0
1 33 -76 0
1 33 -65 0
1 -33 18 0
1 -70 77 0
1 70 -64 0
1 70 24 0
1 70 55 0
1 -70 -18 0
1 66 -78 0
1 -66 -33 0
1 -66 -26 0
1 66 46 0
1 -66 31 0
1 65 -15 0
1 65 -66 0
1 -65 -29 0
1 -65 -33 0
1 65 -26 0
1 -65 -31 0
1 73 -70 0
1 73 13 0
1 73 -15 0
1 -73 -33 0
1 73 14 0
1 -73 -79 0
1 76 13 0
1 76 -73 0
1 -76 80 0
1 -76 68 0
1 -29 -35 0
1 29 21 0
1 29 38 0
1 -29 66 0
1 29 -68 0
1 29 -75 0
1 -29 12 0
1 -29 -25 0
1 29 31 0
1 -31 69 0
1 31 -35 0
1 -31 74 0
1 -31 -21 0
1 31 38 0
1 -31 -66 0
1 -31 -75 0
1 78 36 0
1 -78 38 0
1 78 66 0
1 -78 -81 0
1 78 16 0
1 -78 -25 0
1 -78 65 0
1 -46 -78 0
1 -46 16 0
1 46 25 0
1 46 -82 0
1 -75 -74 0
1 -75 83 0
1 -75 84 0
1 -75 85 0
1 -75 31 0
1 -74 -86 0
1 -74 -70 0
1 74 -78 0
1 -74 -29 0
1 -74 -44 0
1 74 31 0
1 16 -70 0
1 -16 29 0
1 16 -87 0
1 16 79 0
1 -18 16 0
1 18 33 0
1 18 10 0
1 -18 -79 0
1 18 88 0
1 -18 -31 0
1 42 -36 0
1 42 -38 0
1 42 -34 0
1 42 -30 0
1 -42 -25 0
1 42 44 0
1 -44 -74 0
1 44 -34 0
1 -44 -27 0
1 -89 90 0
1 89 -43 0
1 -89 91 0
1 89 -30 0
1 89 92 0
1 85 -74 0
1 85 89 0
1 -85 -30 0
1 -30 93 0
1 30 94 0
1 30 -12 0
1 -30 -95 0
1 -30 96 0
1 30 -44 0
1 -97 -21 0
1 -97 -96 0
1 -97 85 0
1 -97 46 0
1 34 -42 0
1 -34 24 0
1 -34 -84 0
1 -34 46 0
1 36 35 0
1 36 98 0
1 -36 89 0
1 36 99 0
1 36 -84 0
1 -36 -85 0
1 -36 -44 0
1 36 -46 0
1 100 -97 0
1 -100 -45 0
1 96 -90 0
1 -96 45 0
1 96 84 0
1 94 97 0
1 -94 43 0
1 94 -95 0
1 94 -30 0
1 94 45 0
1 95 90 0
1 -95 43 0
1 95 45 0
1 92 94 0
1 92 -43 0
1 -92 89 0
1 92 95 0
1 43 -101 0
1 43 95 0
1 43 -92 0
1 45 -102 0
1 45 -93 0
1 -45 -89 0
1 45 -103 0
1 -45 104 0
1 -45 85 0
1 -90 -105 0
1 -90 89 0
1 -90 101 0
1 90 99 0
1 -90 -95 0
1 90 -85 0
1 50 -106 0
1 -50 -107 0
1 50 -108 0
1 50 -109 0
1 110 111 0
1 -110 6 0
1 110 107 0
1 -110 -50 0
1 54 -111 0
1 54 -112 0
1 -54 -51 0
1 -54 113 0
1 -54 114 0
1 115 106 0
1 115 112 0
1 -115 107 0
1 115 -108 0
1 108 -110 0
1 108 116 0
1 108 -63 0
1 111 108 0
1 -111 -60 0
1 111 110 0
1 111 117 0
1 -111 -50 0
1 107 118 0
1 -107 -119 0
1 -107 110 0
1 107 117 0
1 -106 -120 0
1 106 121 0
1 106 -110 0
1 -106 -54 0
1 -63 111 0
1 63 108 0
1 -63 -17 0
1 -63 -122 0
1 -61 52 0
1 61 -123 0
1 -61 112 0
1 61 -124 0
1 61 108 0
1 -61 -113 0
1 -62 -125 0
1 62 -126 0
1 62 127 0
1 62 -26 0
1 -62 -108 0
1 62 128 0
1 -62 -113 0
1 62 -129 0
1 60 125 0
1 60 -130 0
1 -60 123 0
1 60 126 0
1 60 -127 0
1 60 -124 0
1 60 113 0
1 113 -131 0
1 -113 77 0
1 -113 -60 0
1 -113 132 0
1 -113 -62 0
1 113 63 0
1 113 -54 0
1 -112 -62 0
1 112 -63 0
1 124 -131 0
1 -124 133 0
1 -124 -120 0
1 -124 123 0
1 124 132 0
1 -124 -117 0
1 -124 -134 0
1 -123 -131 0
1 -123 -115 0
1 123 -124 0
1 123 -132 0
1 -123 -117 0
1 -123 63 0
1 58 -125 0
1 -58 52 0
1 -58 71 0
1 58 -112 0
1 58 127 0
1 -58 -117 0
1 -56 -13 0
1 56 127 0
1 56 -129 0
1 -72 125 0
1 72 -77 0
1 72 127 0
1 -72 135 0
1 72 33 0
1 -72 -136 0
1 72 113 0
1 -72 -129 0
1 -77 125 0
1 -77 126 0
1 -77 -136 0
1 -77 -129 0
1 -125 77 0
1 -125 -137 0
1 -125 127 0
1 -125 -68 0
1 -125 -72 0
1 125 138 0
1 127 -69 0
1 127 -77 0
1 -127 60 0
1 127 137 0
1 -127 -72 0
1 -127 82 0
1 129 131 0
1 -129 -126 0
1 -129 -137 0
1 -129 72 0
1 -129 -58 0
1 -129 139 0
1 126 -137 0
1 126 -132 0
1 126 -58 0
1 126 -62 0
1 126 129 0
1 -126 139 0
1 68 127 0
1 -68 135 0
1 -68 136 0
1 -68 -76 0
1 -69 125 0
1 69 59 0
1 -69 57 0
1 -69 -73 0
1 -69 68 0
1 -69 135 0
1 -69 55 0
1 81 -59 0
1 -81 -57 0
1 81 67 0
1 81 -73 0
1 81 -78 0
1 -81 140 0
1 -81 135 0
1 81 -82 0
1 -82 125 0
1 82 -59 0
1 82 57 0
1 82 141 0
1 -82 -67 0
1 82 -135 0
1 82 -142 0
1 -82 -76 0
1 -82 46 0
1 -82 139 0
1 57 91 0
1 57 81 0
1 -57 72 0
1 57 -79 0
1 136 -57 0
1 -136 143 0
1 136 91 0
1 136 -144 0
1 -136 145 0
1 59 -69 0
1 59 -52 0
1 -59 -81 0
1 59 -135 0
1 59 72 0
1 59 146 0
1 -59 147 0
1 135 -69 0
1 -135 -81 0
1 -135 68 0
1 -135 48 0
1 -135 -148 0
1 135 -72 0
1 -135 147 0
1 135 -138 0
1 -80 57 0
1 -80 67 0
1 80 -42 0
1 80 -137 0
1 80 -16 0
1 -80 -76 0
1 -80 -65 0
1 79 141 0
1 -79 -73 0
1 79 66 0
1 -79 136 0
1 79 44 0
1 79 -138 0
1 79 18 0
1 145 -57 0
1 145 -141 0
1 -145 -149 0
1 145 -150 0
1 -145 -16 0
1 -145 85 0
1 -145 151 0
1 145 -152 0
1 -145 -18 0
1 67 -98 0
1 -67 -83 0
1 67 145 0
1 67 -79 0
1 67 82 0
1 153 -98 0
1 -153 -84 0
1 153 154 0
1 -153 -82 0
1 141 -155 0
1 -141 -143 0
1 -141 -91 0
1 -141 -156 0
1 -141 145 0
1 141 79 0
1 -141 -82 0
1 142 91 0
1 142 -53 0
1 -142 146 0
1 142 -82 0
1 -83 74 0
1 83 100 0
1 83 -67 0
1 -83 143 0
1 -83 -150 0
1 83 16 0
1 83 151 0
1 83 18 0
1 84 -36 0
1 -84 67 0
1 84 16 0
1 -84 34 0
1 84 -146 0
1 84 151 0
1 84 152 0
1 -84 -18 0
1 98 -36 0
1 -98 34 0
1 -98 157 0
1 -98 -88 0
1 -157 98 0
1 157 158 0
1 -157 -152 0
1 150 -159 0
1 150 93 0
1 150 -98 0
1 150 -83 0
1 -150 160 0
1 -150 -161 0
1 150 -103 0
1 150 -99 0
1 -150 157 0
1 150 -84 0
1 -150 -145 0
1 -150 -152 0
1 -152 -102 0
1 152 -83 0
1 152 -161 0
1 152 84 0
1 -152 -65 0
1 -152 162 0
1 -149 151 0
1 149 -73 0
1 149 91 0
1 -149 -163 0
1 149 145 0
1 151 83 0
1 151 164 0
1 93 -90 0
1 -93 -150 0
1 -93 -87 0
1 93 -30 0
1 -93 -152 0
1 99 36 0
1 99 93 0
1 99 97 0
1 99 150 0
1 -99 34 0
1 99 -30 0
1 -99 88 0
1 102 86 0
1 102 165 0
1 103 102 0
1 -103 -166 0
1 103 -150 0
1 103 -158 0
1 -103 167 0
1 -103 -45 0
1 -158 102 0
1 158 -168 0
1 -158 -103 0
1 158 169 0
1 158 -170 0
1 -86 -171 0
1 86 99 0
1 87 -159 0
1 87 -102 0
1 -87 93 0
1 -87 98 0
1 87 168 0
1 -87 16 0
1 -87 161 0
1 -87 -157 0
1 87 172 0
1 88 -173 0
1 -88 -159 0
1 -88 -102 0
1 88 -98 0
1 -88 174 0
1 88 -161 0
1 -88 -103 0
1 -88 -169 0
1 105 159 0
1 105 -175 0
1 105 90 0
1 105 43 0
1 105 45 0
1 -105 -92 0
1 -101 86 0
1 -101 166 0
1 101 175 0
1 -101 43 0
1 -101 -161 0
1 101 -92 0
1 -170 86 0
1 170 -166 0
1 170 -176 0
1 170 171 0
1 -170 -167 0
1 171 -177 0
1 -171 170 0
1 -167 -105 0
1 167 -102 0
1 -167 -175 0
1 167 178 0
1 -167 101 0
1 167 -103 0
1 167 -170 0
1 175 -102 0
1 -175 -179 0
1 -175 -170 0
1 165 102 0
1 -165 180 0
1 165 181 0
1 165 -168 0
1 165 -171 0
1 -165 -101 0
1 -165 34 0
1 165 182 0
1 -165 -170 0
1 166 -102 0
1 166 -168 0
1 -166 -171 0
1 166 -101 0
1 -166 -183 0
1 184 -175 0
1 -184 -176 0
1 184 -179 0
1 -184 -167 0
1 184 104 0
1 -179 -175 0
1 179 -185 0
1 -179 168 0
1 -179 104 0
1 179 177 0
1 -179 -184 0
1 186 -175 0
1 -186 177 0
1 -186 183 0
1 178 -177 0
1 178 175 0
1 -178 176 0
1 -178 167 0
1 177 -178 0
1 -177 -171 0
1 177 -186 0
1 -185 177 0
1 -185 179 0
1 104 -180 0
1 104 176 0
1 104 -178 0
1 -104 -179 0
1 104 171 0
1 -104 187 0
1 -104 -188 0
1 -104 45 0
1 104 182 0
1 104 -186 0
1 -104 170 0
1 -176 -179 0
1 176 188 0
1 176 186 0
1 -109 189 0
1 -109 50 0
1 190 191 0
1 114 -191 0
1 -114 192 0
1 114 193 0
1 -114 -54 0
1 114 194 0
1 -195 -194 0
1 195 -192 0
1 -195 196 0
1 195 -197 0
1 195 198 0
1 -192 130 0
1 192 -199 0
1 192 197 0
1 -197 119 0
1 -197 192 0
1 -197 -128 0
1 197 -122 0
1 -197 -200 0
1 197 -114 0
1 -191 -201 0
1 191 -189 0
1 191 109 0
1 -189 -190 0
1 -189 -202 0
1 122 -107 0
1 -122 197 0
1 -122 -198 0
1 119 -106 0
1 119 -61 0
1 -119 192 0
1 -119 -122 0
1 128 -203 0
1 128 130 0
1 -128 193 0
1 -128 -196 0
1 -128 62 0
1 -130 -106 0
1 -130 60 0
1 130 -192 0
1 -130 204 0
1 130 -205 0
1 -130 107 0
1 -130 -128 0
1 130 -194 0
1 -130 198 0
1 -196 -120 0
1 196 130 0
1 196 117 0
1 196 128 0
1 196 -198 0
1 198 -206 0
1 198 133 0
1 198 120 0
1 198 -130 0
1 198 207 0
1 -198 128 0
1 198 122 0
1 198 114 0
1 193 -194 0
1 -193 -208 0
1 -193 -122 0
1 194 130 0
1 194 -195 0
1 194 193 0
1 194 -122 0
1 194 -209 0
1 117 -210 0
1 117 120 0
1 117 -111 0
1 117 -198 0
1 120 203 0
1 -120 56 0
1 120 -196 0
1 120 -205 0
1 120 107 0
1 211 210 0
1 -211 212 0
1 211 -123 0
1 211 118 0
1 211 -116 0
1 -211 198 0
1 -133 77 0
1 133 210 0
1 133 -204 0
1 133 198 0
1 -205 130 0
1 205 213 0
1 -205 214 0
1 205 -215 0
1 210 -131 0
1 210 120 0
1 -210 130 0
1 -210 -140 0
1 210 -205 0
1 210 117 0
1 -210 128 0
1 210 139 0
1 -204 -203 0
1 204 -206 0
1 204 133 0
1 -204 130 0
1 204 -207 0
1 -204 -216 0
1 204 215 0
1 203 217 0
1 203 -130 0
1 203 -204 0
1 -203 -207 0
1 -203 -117 0
1 203 128 0
1 -203 215 0
1 -132 -131 0
1 -132 -210 0
1 132 121 0
1 132 212 0
1 132 207 0
1 -132 205 0
1 -131 206 0
1 131 -121 0
1 -131 -124 0
1 -131 -129 0
1 -140 -218 0
1 140 -126 0
1 140 205 0
1 -139 -217 0
1 -139 210 0
1 -139 212 0
1 -139 126 0
1 -139 -118 0
1 139 116 0
1 -139 -134 0
1 139 -219 0
1 -139 129 0
1 -116 131 0
1 -116 -133 0
1 -116 137 0
1 116 -220 0
1 -116 -211 0
1 116 108 0
1 212 133 0
1 212 -111 0
1 212 137 0
1 212 211 0
1 -212 221 0
1 -212 -147 0
1 212 139 0
1 118 131 0
1 -118 132 0
1 118 215 0
1 118 139 0
1 -121 131 0
1 -121 -133 0
1 121 222 0
1 -121 -223 0
1 121 213 0
1 -121 -140 0
1 -121 132 0
1 121 -221 0
1 -121 -139 0
1 137 125 0
1 137 -59 0
1 137 -212 0
1 137 224 0
1 137 -218 0
1 -137 127 0
1 -137 -116 0
1 -137 -134 0
1 137 -138 0
1 137 -129 0
1 138 125 0
1 138 -129 0
1 138 -218 0
1 138 -127 0
1 138 135 0
1 138 -134 0
1 138 -79 0
1 -225 226 0
1 -225 -218 0
1 225 227 0
1 -225 134 0
1 225 116 0
1 -225 147 0
1 -225 -219 0
1 -147 -212 0
1 -147 -135 0
1 -147 -116 0
1 -147 -145 0
1 -147 -134 0
1 -219 228 0
1 -219 -143 0
1 219 218 0
1 219 -140 0
1 -219 -146 0
1 219 229 0
1 -218 -143 0
1 218 -140 0
1 -218 -156 0
1 218 146 0
1 218 219 0
1 -218 138 0
1 -134 -223 0
1 -134 225 0
1 134 -230 0
1 134 147 0
1 134 -138 0
1 -224 231 0
1 224 -232 0
1 224 233 0
1 224 137 0
1 224 -134 0
1 224 -147 0
1 -143 -141 0
1 143 -223 0
1 143 -234 0
1 143 -135 0
1 143 -136 0
1 -143 -146 0
1 146 226 0
1 -146 57 0
1 -146 -143 0
1 146 -234 0
1 146 142 0
1 146 -235 0
1 228 -141 0
1 -228 -98 0
1 228 232 0
1 228 -148 0
1 228 144 0
1 228 -156 0
1 228 -219 0
1 228 235 0
1 -156 226 0
1 156 -141 0
1 156 228 0
1 156 234 0
1 156 -236 0
1 -156 -235 0
1 226 -125 0
1 226 -228 0
1 -226 237 0
1 -226 -156 0
1 234 -238 0
1 234 239 0
1 234 240 0
1 234 228 0
1 234 127 0
1 234 -237 0
1 234 -164 0
1 234 -156 0
1 -234 147 0
1 -235 238 0
1 235 228 0
1 -235 -227 0
1 235 147 0
1 227 -241 0
1 -227 -231 0
1 -227 143 0
1 -227 -126 0
1 227 -242 0
1 -227 243 0
1 -227 230 0
1 -240 -93 0
1 -240 -244 0
1 -240 245 0
1 -240 -148 0
1 -246 -226 0
1 246 245 0
1 -246 -141 0
1 246 -234 0
1 246 99 0
1 -246 -153 0
1 246 -151 0
1 239 155 0
1 239 247 0
1 -239 149 0
1 239 -148 0
1 239 144 0
1 239 248 0
1 -164 -155 0
1 -164 234 0
1 -164 -243 0
1 -164 148 0
1 -164 -248 0
1 -164 -154 0
1 -164 -151 0
1 245 239 0
1 -245 228 0
1 -245 -249 0
1 245 161 0
1 245 -164 0
1 245 -246 0
1 -245 156 0
1 -245 172 0
1 -144 -159 0
1 144 240 0
1 -144 -245 0
1 -144 249 0
1 -144 -161 0
1 144 156 0
1 244 -238 0
1 244 -228 0
1 -244 -250 0
1 244 -148 0
1 -244 -246 0
1 244 -156 0
1 148 240 0
1 148 -135 0
1 -148 251 0
1 159 -245 0
1 -159 247 0
1 -159 -150 0
1 159 -161 0
1 159 -151 0
1 -159 152 0
1 -161 -245 0
1 161 -87 0
1 161 237 0
1 -161 -248 0
1 -161 -154 0
1 -172 -252 0
1 -172 -245 0
1 -172 155 0
1 -172 174 0
1 172 87 0
1 -172 -170 0
1 -174 -245 0
1 174 -155 0
1 -174 247 0
1 174 163 0
1 -174 171 0
1 -174 -250 0
1 -174 144 0
1 -174 -154 0
1 -174 88 0
1 -247 -239 0
1 -247 -253 0
1 247 -168 0
1 247 174 0
1 247 -161 0
1 247 -164 0
1 247 -183 0
1 247 -172 0
1 154 -239 0
1 154 -181 0
1 -154 -168 0
1 154 -161 0
1 154 164 0
1 154 172 0
1 -155 -239 0
1 -155 -141 0
1 155 -164 0
1 155 248 0
1 -248 -159 0
1 -248 -239 0
1 -248 161 0
1 -169 86 0
1 169 158 0
1 169 -165 0
1 169 -254 0
1 168 247 0
1 168 179 0
1 -168 163 0
1 -168 160 0
1 -168 -158 0
1 -168 -154 0
1 168 -88 0
1 -183 160 0
1 -183 165 0
1 183 -254 0
1 -183 255 0
1 183 -162 0
1 181 256 0
1 181 -163 0
1 -181 -254 0
1 -181 -160 0
1 181 257 0
1 160 -258 0
1 160 180 0
1 -160 181 0
1 160 174 0
1 160 259 0
1 -160 -260 0
1 160 188 0
1 -160 183 0
1 160 169 0
1 160 172 0
1 -162 -181 0
1 -162 -168 0
1 -162 -174 0
1 162 -188 0
1 -162 183 0
1 -163 253 0
1 163 181 0
1 -163 149 0
1 -163 -168 0
1 163 174 0
1 163 -254 0
1 163 260 0
1 163 261 0
1 163 -169 0
1 163 172 0
1 -254 -258 0
1 254 -168 0
1 -254 151 0
1 -254 169 0
1 -254 172 0
1 182 173 0
1 182 -166 0
1 182 175 0
1 -182 176 0
1 182 -160 0
1 -182 257 0
1 -182 262 0
1 182 -165 0
1 182 -167 0
1 182 -162 0
1 -180 -173 0
1 180 263 0
1 180 167 0
1 -188 -173 0
1 188 -264 0
1 188 162 0
1 265 173 0
1 265 -263 0
1 -265 162 0
1 -262 -266 0
1 -262 267 0
1 262 268 0
1 -262 -269 0
1 262 -183 0
1 263 -266 0
1 263 -267 0
1 263 265 0
1 263 269 0
1 263 -187 0
1 -257 -270 0
1 257 271 0
1 -257 -181 0
1 -257 -272 0
1 257 -260 0
1 257 -183 0
1 173 -270 0
1 173 -271 0
1 -173 -258 0
1 -173 -180 0
1 -173 -260 0
1 -173 -188 0
1 -173 182 0
1 -187 267 0
1 187 260 0
1 -187 273 0
1 267 262 0
1 267 274 0
1 269 -264 0
1 -269 275 0
1 269 -276 0
1 266 263 0
1 266 -277 0
1 -266 262 0
1 -266 274 0
1 -266 276 0
1 -266 278 0
1 273 -266 0
1 273 -269 0
1 -273 279 0
1 -264 266 0
1 -264 267 0
1 264 -175 0
1 264 -269 0
1 -264 -187 0
1 274 -270 0
1 274 266 0
1 274 277 0
1 274 280 0
1 274 -269 0
1 -274 187 0
1 274 281 0
1 -277 270 0
1 277 -266 0
1 277 166 0
1 277 280 0
1 -277 269 0
1 277 187 0
1 277 188 0
1 282 -264 0
1 -282 283 0
1 282 276 0
1 -283 284 0
1 -283 282 0
1 -283 273 0
1 -283 278 0
1 285 -275 0
1 -285 273 0
1 279 284 0
1 -279 -275 0
1 279 276 0
1 -279 281 0
1 -278 -282 0
1 -278 -269 0
1 275 -269 0
1 275 279 0
1 -275 -283 0
1 -276 -266 0
1 276 284 0
1 276 -282 0
1 276 -104 0
1 276 279 0
1 -284 -266 0
1 -284 -269 0
1 207 203 0
1 -207 -206 0
1 -207 204 0
1 -207 -198 0
1 -206 203 0
1 -206 201 0
1 -206 204 0
1 206 -207 0
1 206 202 0
1 -286 203 0
1 -286 199 0
1 -286 208 0
1 286 -287 0
1 -286 -202 0
1 -286 -200 0
1 -217 203 0
1 217 201 0
1 -217 -199 0
1 217 -208 0
1 217 -286 0
1 217 204 0
1 -217 -287 0
1 -217 -139 0
1 -199 288 0
1 199 -289 0
1 199 286 0
1 200 217 0
1 -200 -206 0
1 -200 288 0
1 200 -213 0
1 200 -286 0
1 201 -217 0
1 201 206 0
1 -201 -286 0
1 202 -290 0
1 202 -207 0
1 202 -189 0
1 -213 291 0
1 213 203 0
1 -213 -210 0
1 -213 121 0
1 213 209 0
1 213 208 0
1 -215 121 0
1 -215 -213 0
1 -215 -287 0
1 -215 -200 0
1 -215 -138 0
1 -288 -291 0
1 288 -292 0
1 288 -121 0
1 -288 225 0
1 -288 -287 0
1 -288 216 0
1 288 214 0
1 288 118 0
1 -288 200 0
1 -293 294 0
1 293 121 0
1 293 -199 0
1 -293 216 0
1 -293 -118 0
1 -293 -147 0
1 293 209 0
1 -287 -291 0
1 -287 232 0
1 287 -223 0
1 287 288 0
1 -287 213 0
1 287 -286 0
1 -287 -295 0
1 291 -217 0
1 -291 -296 0
1 291 232 0
1 291 -213 0
1 -291 -286 0
1 291 287 0
1 291 -215 0
1 291 -198 0
1 -208 -217 0
1 208 297 0
1 -208 213 0
1 209 -295 0
1 209 293 0
1 223 -292 0
1 223 -121 0
1 223 212 0
1 223 -214 0
1 -221 121 0
1 -221 224 0
1 221 -214 0
1 -221 118 0
1 232 294 0
1 232 222 0
1 232 228 0
1 232 298 0
1 -232 -134 0
1 236 -222 0
1 236 224 0
1 -236 216 0
1 236 299 0
1 236 -220 0
1 -214 -300 0
1 214 -241 0
1 -214 -231 0
1 -214 288 0
1 214 -301 0
1 214 236 0
1 214 293 0
1 -294 231 0
1 294 -232 0
1 -294 223 0
1 294 -221 0
1 -294 -293 0
1 -216 -292 0
1 216 300 0
1 216 -302 0
1 -216 232 0
1 -216 303 0
1 -216 -204 0
1 216 -304 0
1 292 -305 0
1 292 -297 0
1 292 232 0
1 292 -223 0
1 -292 -288 0
1 -292 -304 0
1 -292 -295 0
1 -292 -221 0
1 -231 294 0
1 231 222 0
1 -231 -214 0
1 231 299 0
1 231 -220 0
1 230 -294 0
1 -230 -231 0
1 230 246 0
1 -230 295 0
1 230 134 0
1 -230 -235 0
1 241 222 0
1 241 -298 0
1 -241 -233 0
1 -241 227 0
1 241 299 0
1 241 -220 0
1 -241 -306 0
1 241 235 0
1 243 -298 0
1 -243 -164 0
1 -243 -214 0
1 -243 -220 0
1 243 306 0
1 -243 229 0
1 220 231 0
1 220 -298 0
1 220 -237 0
1 220 243 0
1 220 116 0
1 -220 307 0
1 -298 252 0
1 -298 238 0
1 298 -241 0
1 298 231 0
1 298 232 0
1 -298 -308 0
1 298 243 0
1 -298 -220 0
1 299 309 0
1 -299 232 0
1 299 -230 0
1 -222 299 0
1 222 121 0
1 222 -236 0
1 222 -307 0
1 238 159 0
1 -238 226 0
1 -238 -300 0
1 -238 244 0
1 238 -233 0
1 -238 -310 0
1 -238 234 0
1 238 -220 0
1 237 -298 0
1 -237 -227 0
1 237 -148 0
1 237 220 0
1 -237 -306 0
1 -252 311 0
1 -252 -310 0
1 -250 252 0
1 250 -312 0
1 250 311 0
1 250 298 0
1 250 -310 0
1 -250 -174 0
1 -250 313 0
1 -250 220 0
1 250 -306 0
1 229 252 0
1 229 -314 0
1 229 249 0
1 229 -310 0
1 -229 237 0
1 229 315 0
1 -229 219 0
1 -310 -252 0
1 -310 241 0
1 -310 -314 0
1 310 -249 0
1 -310 315 0
1 -310 229 0
1 -306 -233 0
1 306 -316 0
1 306 -308 0
1 306 250 0
1 306 243 0
1 -306 -317 0
1 -306 315 0
1 233 -252 0
1 -233 241 0
1 -233 224 0
1 -233 308 0
1 -233 -318 0
1 -233 307 0
1 249 312 0
1 249 244 0
1 -249 310 0
1 249 -308 0
1 -249 242 0
1 -249 144 0
1 255 312 0
1 -255 -311 0
1 255 -256 0
1 255 310 0
1 255 -242 0
1 255 -313 0
1 255 -248 0
1 -255 -183 0
1 -255 -318 0
1 -255 -229 0
1 -256 319 0
1 256 242 0
1 256 -251 0
1 311 -226 0
1 311 253 0
1 311 -256 0
1 -311 250 0
1 -311 313 0
1 311 -320 0
1 -311 255 0
1 -313 -253 0
1 313 -249 0
1 313 320 0
1 313 321 0
1 313 255 0
1 -312 252 0
1 -312 -322 0
1 312 -256 0
1 312 255 0
1 -312 235 0
1 242 -252 0
1 -242 322 0
1 242 -323 0
1 242 314 0
1 -242 256 0
1 242 -249 0
1 242 250 0
1 -242 255 0
1 -261 -311 0
1 261 -182 0
1 253 324 0
1 -253 180 0
1 253 -314 0
1 -253 -247 0
1 -253 163 0
1 -253 261 0
1 -253 -254 0
1 -321 -325 0
1 -321 -319 0
1 -321 188 0
1 -321 326 0
1 -325 -311 0
1 -325 265 0
1 -325 324 0
1 325 323 0
1 325 -327 0
1 325 313 0
1 -325 321 0
1 -325 328 0
1 -319 258 0
1 319 -245 0
1 -319 -253 0
1 319 255 0
1 -329 319 0
1 329 256 0
1 329 -272 0
1 -329 -255 0
1 324 -330 0
1 -324 -331 0
1 -324 244 0
1 324 253 0
1 324 -256 0
1 324 -332 0
1 324 -321 0
1 -251 330 0
1 251 331 0
1 251 253 0
1 -251 -148 0
1 251 -333 0
1 -251 321 0
1 260 -173 0
1 -260 258 0
1 260 -327 0
1 260 163 0
1 -260 -160 0
1 -260 187 0
1 -258 173 0
1 258 267 0
1 258 322 0
1 -258 334 0
1 -258 162 0
1 -272 -271 0
1 -272 334 0
1 272 -335 0
1 -272 259 0
1 -272 -269 0
1 -272 329 0
1 -272 -328 0
1 -272 -336 0
1 -271 -319 0
1 -271 -334 0
1 -271 272 0
1 271 329 0
1 -271 328 0
1 -271 -337 0
1 -327 -271 0
1 -327 247 0
1 -327 321 0
1 -336 -270 0
1 -336 271 0
1 -336 321 0
1 -334 -330 0
1 334 258 0
1 -334 -325 0
1 -334 -338 0
1 334 -260 0
1 -334 -321 0
1 328 -271 0
1 328 321 0
1 -268 -270 0
1 -268 -277 0
1 -268 335 0
1 268 259 0
1 -268 257 0
1 -268 -332 0
1 268 -262 0
1 -268 336 0
1 -268 -339 0
1 -268 337 0
1 270 173 0
1 270 263 0
1 270 -336 0
1 270 337 0
1 280 -336 0
1 280 -327 0
1 280 335 0
1 280 339 0
1 280 -281 0
1 281 -277 0
1 -281 327 0
1 281 280 0
1 -281 -259 0
1 -281 274 0
1 281 336 0
1 -281 339 0
1 281 279 0
1 281 -340 0
1 259 -271 0
1 -259 160 0
1 -259 280 0
1 259 281 0
1 337 270 0
1 -337 268 0
1 -337 162 0
1 -337 281 0
1 335 -271 0
1 335 339 0
1 -339 335 0
1 339 -254 0
1 -297 -291 0
1 -297 -289 0
1 297 216 0
1 -297 290 0
1 297 341 0
1 -295 291 0
1 -295 -216 0
1 -295 230 0
1 295 209 0
1 -302 -342 0
1 -302 -343 0
1 -302 304 0
1 304 292 0
1 304 243 0
1 -304 341 0
1 -289 -309 0
1 289 -300 0
1 289 302 0
1 289 344 0
1 -289 -345 0
1 -289 303 0
1 289 304 0
1 -289 -341 0
1 341 309 0
1 341 300 0
1 -341 344 0
1 -346 297 0
1 -346 -347 0
1 346 295 0
1 -290 302 0
1 -290 346 0
1 290 -304 0
1 290 -348 0
1 -300 -238 0
1 -300 292 0
1 300 -289 0
1 300 -303 0
1 -300 -216 0
1 -300 343 0
1 -300 299 0
1 -300 -341 0
1 -300 349 0
1 -303 292 0
1 303 -342 0
1 303 -216 0
1 303 -299 0
1 -303 -349 0
1 -309 -252 0
1 -309 305 0
1 -309 -344 0
1 -309 342 0
1 309 299 0
1 309 -341 0
1 -344 296 0
1 -344 222 0
1 -344 289 0
1 -344 -250 0
1 343 296 0
1 -343 -300 0
1 -343 302 0
1 343 308 0
1 343 -303 0
1 343 318 0
1 296 -309 0
1 296 -350 0
1 296 -351 0
1 -296 304 0
1 -342 -309 0
1 342 -300 0
1 -342 302 0
1 -342 -351 0
1 -342 208 0
1 -342 304 0
1 -342 -349 0
1 349 309 0
1 349 352 0
1 349 -300 0
1 -349 209 0
1 349 -342 0
1 -349 353 0
1 307 305 0
1 -307 233 0
1 307 -306 0
1 -308 296 0
1 308 305 0
1 308 222 0
1 308 -249 0
1 308 299 0
1 -308 -220 0
1 -318 -305 0
1 318 -354 0
1 -318 -355 0
1 -318 -301 0
1 318 356 0
1 318 357 0
1 316 296 0
1 316 -305 0
1 316 343 0
1 316 301 0
1 -316 -356 0
1 316 -318 0
1 301 -344 0
1 301 -315 0
1 -301 -318 0
1 -358 -359 0
1 358 -323 0
1 358 -360 0
1 -358 314 0
1 358 308 0
1 358 -301 0
1 -358 326 0
1 358 315 0
1 358 318 0
1 -358 -307 0
1 355 -305 0
1 355 -344 0
1 355 -353 0
1 355 -307 0
1 -305 309 0
1 -305 -292 0
1 305 -359 0
1 -305 -361 0
1 -305 344 0
1 305 362 0
1 -315 -363 0
1 -315 -233 0
1 -315 356 0
1 315 -261 0
1 -315 306 0
1 314 312 0
1 314 253 0
1 314 363 0
1 314 -356 0
1 -314 357 0
1 -314 306 0
1 326 -323 0
1 -326 363 0
1 326 -356 0
1 326 -242 0
1 -326 321 0
1 323 312 0
1 323 -358 0
1 -323 -325 0
1 323 354 0
1 323 -364 0
1 -323 -301 0
1 -323 -326 0
1 323 -357 0
1 -357 -331 0
1 -357 -323 0
1 357 314 0
1 357 363 0
1 -357 -220 0
1 -357 365 0
1 357 -326 0
1 357 -315 0
1 363 365 0
1 -363 326 0
1 -356 -366 0
1 -356 -323 0
1 356 314 0
1 356 -316 0
1 -356 365 0
1 354 314 0
1 354 362 0
1 -354 326 0
1 -354 -356 0
1 320 311 0
1 -320 -367 0
1 320 313 0
1 320 -251 0
1 320 260 0
1 -320 -317 0
1 -322 312 0
1 322 -258 0
1 322 -324 0
1 -322 359 0
1 322 363 0
1 322 -364 0
1 322 -313 0
1 -322 320 0
1 -322 357 0
1 322 -368 0
1 333 369 0
1 -333 331 0
1 -333 370 0
1 -333 -364 0
1 -333 371 0
1 333 -272 0
1 333 357 0
1 331 -271 0
1 -331 370 0
1 331 -366 0
1 -331 324 0
1 331 -372 0
1 -331 371 0
1 -368 331 0
1 -368 -364 0
1 368 326 0
1 -368 -229 0
1 368 -340 0
1 364 322 0
1 -364 310 0
1 364 -326 0
1 -317 -373 0
1 317 -374 0
1 -367 -322 0
1 -367 -233 0
1 -367 -333 0
1 -367 -317 0
1 332 -369 0
1 332 -364 0
1 332 372 0
1 -332 -371 0
1 332 251 0
1 -332 328 0
1 332 368 0
1 330 -270 0
1 -330 -324 0
1 -330 -319 0
1 330 332 0
1 330 -371 0
1 330 -328 0
1 -330 -368 0
1 338 -368 0
1 338 334 0
1 -338 -364 0
1 338 -374 0
1 -340 334 0
1 -340 -364 0
1 340 -372 0
1 340 -368 0
1 370 -371 0
1 370 -333 0
1 -370 -340 0
1 -371 -331 0
1 371 313 0
1 -371 -332 0
1 -371 340 0
1 369 331 0
1 369 332 0
1 369 -340 0
1 -372 -330 0
1 -372 -369 0
1 372 -331 0
1 372 -332 0
1 -353 -305 0
1 -353 351 0
1 -353 -347 0
1 353 -345 0
1 -353 -375 0
1 351 342 0
1 -351 355 0
1 -351 -353 0
1 -376 -352 0
1 -376 -305 0
1 -376 -355 0
1 -376 326 0
1 361 -350 0
1 361 345 0
1 -361 -377 0
1 361 -376 0
1 -361 348 0
1 -345 -375 0
1 -345 -289 0
1 345 -378 0
1 -345 362 0
1 375 366 0
1 -375 -351 0
1 -375 -378 0
1 -347 -351 0
1 -347 -348 0
1 -348 -290 0
1 -362 -350 0
1 -362 305 0
1 362 -345 0
1 -362 379 0
1 362 -356 0
1 359 305 0
1 359 -354 0
1 -359 345 0
1 359 -355 0
1 359 356 0
1 -378 366 0
1 378 354 0
1 -378 -345 0
1 378 -380 0
1 -378 -381 0
1 -366 -352 0
1 -366 -382 0
1 366 360 0
1 -366 -345 0
1 366 377 0
1 -366 -379 0
1 366 -378 0
1 -366 -380 0
1 -366 356 0
1 -366 -375 0
1 -379 359 0
1 379 -361 0
1 379 374 0
1 -379 -378 0
1 -379 362 0
1 -350 -359 0
1 -350 -361 0
1 350 -374 0
1 350 -379 0
1 -350 362 0
1 377 -342 0
1 352 -359 0
1 -352 -361 0
1 -352 -376 0
1 -365 -383 0
1 365 -350 0
1 365 382 0
1 365 -367 0
1 365 -332 0
1 -365 -379 0
1 365 -357 0
1 365 -317 0
1 -383 330 0
1 -383 363 0
1 -383 -367 0
1 383 365 0
1 -383 379 0
1 383 380 0
1 -383 317 0
1 -374 -367 0
1 -374 -381 0
1 373 -382 0
1 -373 -340 0
1 381 -383 0
1 -381 360 0
1 -381 374 0
1 381 365 0
1 381 -378 0
1 -381 301 0
1 360 358 0
1 360 381 0
1 -380 -382 0
1 380 -378 0
1 382 -373 0
1 382 305 0
1 -382 366 0
1 382 378 0
1 -382 -380 0
